NAME 
ROWS
 N  OBJ
 L  R0      
 L  R1      
 E  R2      
 E  R3      
 E  R4      
 E  R5      
 E  R6      
 E  R7      
 E  R8      
 E  R9      
 E  R10     
 E  R11     
 E  R12     
 E  R13     
 E  R14     
 E  R15     
 E  R16     
 E  R17     
 E  R18     
 E  R19     
 E  R20     
 E  R21     
 E  R22     
 E  R23     
 E  R24     
 E  R25     
 E  R26     
COLUMNS
    MARKER    'MARKER'                 'INTORG'
    I0(12)    OBJ       134
    I0(12)    R0        125
    I0(12)    R1        -65
    I0(12)    R2        10
    I0(12)    R3        16
    I0(12)    R4        19
    I0(12)    R6        1
    I0(12)    R7        1
    I0(12)    R8        -1
    I0(12)    R9        -1
    I0(12)    R10       18
    I0(12)    R13       6
    I0(12)    R26       1
    I1(11)    OBJ       -157
    I1(11)    R0        -39
    I1(11)    R1        -196
    I1(11)    R2        11
    I1(11)    R5        8
    I1(11)    R7        18
    I1(11)    R8        6
    I1(11)    R9        16
    I1(11)    R10       -1
    I1(11)    R12       15
    I1(11)    R13       15
    I1(11)    R26       1
    I2(11)    OBJ       1
    I2(11)    R0        -142
    I2(11)    R1        187
    I2(11)    R2        11
    I2(11)    R3        12
    I2(11)    R7        9
    I2(11)    R8        2
    I2(11)    R9        10
    I2(11)    R11       16
    I2(11)    R12       15
    I2(11)    R13       10
    I2(11)    R26       1
    I3(13)    OBJ       138
    I3(13)    R0        -162
    I3(13)    R1        -123
    I3(13)    R2        5
    I3(13)    R3        12
    I3(13)    R5        18
    I3(13)    R7        15
    I3(13)    R8        8
    I3(13)    R9        17
    I3(13)    R10       5
    I3(13)    R11       12
    I3(13)    R12       5
    I3(13)    R13       9
    I3(13)    R26       1
    I4(14)    OBJ       -62
    I4(14)    R0        127
    I4(14)    R1        50
    I4(14)    R2        17
    I4(14)    R3        8
    I4(14)    R4        10
    I4(14)    R5        18
    I4(14)    R6        19
    I4(14)    R7        1
    I4(14)    R8        17
    I4(14)    R9        8
    I4(14)    R10       4
    I4(14)    R12       15
    I4(14)    R13       11
    I4(14)    R26       1
    I5(15)    OBJ       109
    I5(15)    R0        149
    I5(15)    R1        89
    I5(15)    R2        -1
    I5(15)    R3        12
    I5(15)    R4        12
    I5(15)    R5        10
    I5(15)    R6        17
    I5(15)    R7        9
    I5(15)    R8        5
    I5(15)    R9        12
    I5(15)    R10       3
    I5(15)    R11       5
    I5(15)    R12       7
    I5(15)    R13       9
    I5(15)    R26       1
    I6(13)    OBJ       -133
    I6(13)    R0        -181
    I6(13)    R1        27
    I6(13)    R2        1
    I6(13)    R3        11
    I6(13)    R4        19
    I6(13)    R5        18
    I6(13)    R6        18
    I6(13)    R7        14
    I6(13)    R10       11
    I6(13)    R11       -1
    I6(13)    R12       14
    I6(13)    R13       4
    I6(13)    R26       1
    I7(14)    OBJ       190
    I7(14)    R0        -194
    I7(14)    R1        -95
    I7(14)    R2        18
    I7(14)    R3        5
    I7(14)    R4        9
    I7(14)    R6        16
    I7(14)    R7        10
    I7(14)    R8        6
    I7(14)    R9        19
    I7(14)    R10       1
    I7(14)    R11       -1
    I7(14)    R12       5
    I7(14)    R13       5
    I7(14)    R26       1
    I8(12)    OBJ       35
    I8(12)    R0        106
    I8(12)    R1        84
    I8(12)    R2        11
    I8(12)    R3        10
    I8(12)    R6        6
    I8(12)    R7        4
    I8(12)    R8        15
    I8(12)    R9        -1
    I8(12)    R11       14
    I8(12)    R12       -1
    I8(12)    R13       1
    I8(12)    R26       1
    I9(11)    OBJ       -112
    I9(11)    R0        153
    I9(11)    R1        63
    I9(11)    R2        3
    I9(11)    R3        17
    I9(11)    R4        9
    I9(11)    R5        7
    I9(11)    R8        13
    I9(11)    R9        12
    I9(11)    R10       6
    I9(11)    R12       11
    I9(11)    R26       1
    I10(13)   OBJ       131
    I10(13)   R0        -154
    I10(13)   R1        105
    I10(13)   R2        -1
    I10(13)   R3        11
    I10(13)   R4        5
    I10(13)   R5        -1
    I10(13)   R7        17
    I10(13)   R8        1
    I10(13)   R10       13
    I10(13)   R11       16
    I10(13)   R12       18
    I10(13)   R13       7
    I10(13)   R26       1
    I11(11)   OBJ       -52
    I11(11)   R0        -183
    I11(11)   R1        32
    I11(11)   R2        14
    I11(11)   R4        17
    I11(11)   R5        1
    I11(11)   R8        18
    I11(11)   R9        19
    I11(11)   R11       3
    I11(11)   R12       14
    I11(11)   R13       6
    I11(11)   R26       1
    MARKER    'MARKER'                 'INTEND'
    C12(20)   OBJ       5
    C12(20)   R0        1
    C12(20)   R1        -5
    C12(20)   R2        8
    C12(20)   R3        13
    C12(20)   R4        9
    C12(20)   R7        9
    C12(20)   R8        8
    C12(20)   R9        7
    C12(20)   R10       12
    C12(20)   R11       18
    C12(20)   R14       15
    C12(20)   R15       17
    C12(20)   R17       17
    C12(20)   R18       6
    C12(20)   R19       7
    C12(20)   R21       7
    C12(20)   R22       -1
    C12(20)   R23       14
    C12(20)   R24       2
    C12(20)   R25       9
    C13(24)   OBJ       -10
    C13(24)   R0        -2
    C13(24)   R1        1
    C13(24)   R2        14
    C13(24)   R3        14
    C13(24)   R4        7
    C13(24)   R6        7
    C13(24)   R7        5
    C13(24)   R8        7
    C13(24)   R9        3
    C13(24)   R10       7
    C13(24)   R11       6
    C13(24)   R12       16
    C13(24)   R13       8
    C13(24)   R14       8
    C13(24)   R15       17
    C13(24)   R16       10
    C13(24)   R18       12
    C13(24)   R19       7
    C13(24)   R20       -1
    C13(24)   R21       12
    C13(24)   R22       10
    C13(24)   R23       7
    C13(24)   R24       -1
    C13(24)   R25       7
    C14(20)   OBJ       1
    C14(20)   R0        9
    C14(20)   R1        1
    C14(20)   R2        18
    C14(20)   R3        6
    C14(20)   R4        17
    C14(20)   R5        4
    C14(20)   R6        4
    C14(20)   R7        19
    C14(20)   R8        15
    C14(20)   R9        13
    C14(20)   R12       5
    C14(20)   R13       13
    C14(20)   R14       1
    C14(20)   R17       9
    C14(20)   R18       4
    C14(20)   R19       13
    C14(20)   R22       -1
    C14(20)   R23       13
    C14(20)   R24       4
    C14(20)   R25       3
    C15(23)   OBJ       4
    C15(23)   R0        -7
    C15(23)   R1        8
    C15(23)   R3        10
    C15(23)   R4        8
    C15(23)   R5        3
    C15(23)   R6        14
    C15(23)   R7        14
    C15(23)   R8        -1
    C15(23)   R9        9
    C15(23)   R10       17
    C15(23)   R11       12
    C15(23)   R13       17
    C15(23)   R14       17
    C15(23)   R15       3
    C15(23)   R16       6
    C15(23)   R17       18
    C15(23)   R18       14
    C15(23)   R19       3
    C15(23)   R20       19
    C15(23)   R21       3
    C15(23)   R23       1
    C15(23)   R24       6
    C15(23)   R25       12
    C16(20)   OBJ       6
    C16(20)   R0        7
    C16(20)   R1        4
    C16(20)   R2        6
    C16(20)   R3        6
    C16(20)   R4        3
    C16(20)   R6        19
    C16(20)   R7        18
    C16(20)   R8        16
    C16(20)   R11       2
    C16(20)   R12       9
    C16(20)   R13       13
    C16(20)   R14       2
    C16(20)   R15       10
    C16(20)   R16       6
    C16(20)   R17       10
    C16(20)   R18       5
    C16(20)   R21       -1
    C16(20)   R22       11
    C16(20)   R24       18
    C16(20)   R25       6
    C17(19)   OBJ       1
    C17(19)   R0        4
    C17(19)   R3        17
    C17(19)   R4        8
    C17(19)   R6        -1
    C17(19)   R8        6
    C17(19)   R9        5
    C17(19)   R10       14
    C17(19)   R11       14
    C17(19)   R14       1
    C17(19)   R15       1
    C17(19)   R16       1
    C17(19)   R17       13
    C17(19)   R18       1
    C17(19)   R19       15
    C17(19)   R20       5
    C17(19)   R21       14
    C17(19)   R22       16
    C17(19)   R23       3
    C17(19)   R24       1
    C18(20)   OBJ       8
    C18(20)   R0        6
    C18(20)   R1        -5
    C18(20)   R2        5
    C18(20)   R3        2
    C18(20)   R4        10
    C18(20)   R6        17
    C18(20)   R7        6
    C18(20)   R8        4
    C18(20)   R9        14
    C18(20)   R10       16
    C18(20)   R12       7
    C18(20)   R13       1
    C18(20)   R14       17
    C18(20)   R17       -1
    C18(20)   R18       2
    C18(20)   R19       2
    C18(20)   R22       2
    C18(20)   R23       1
    C18(20)   R24       1
    C18(20)   R25       -1
    C19(20)   OBJ       8
    C19(20)   R0        -10
    C19(20)   R1        -8
    C19(20)   R2        5
    C19(20)   R4        18
    C19(20)   R5        15
    C19(20)   R6        11
    C19(20)   R7        16
    C19(20)   R8        17
    C19(20)   R9        17
    C19(20)   R11       16
    C19(20)   R12       13
    C19(20)   R13       2
    C19(20)   R15       13
    C19(20)   R16       15
    C19(20)   R18       14
    C19(20)   R19       6
    C19(20)   R20       10
    C19(20)   R21       3
    C19(20)   R22       10
    C19(20)   R24       14
    C20(22)   OBJ       4
    C20(22)   R0        7
    C20(22)   R1        -8
    C20(22)   R2        1
    C20(22)   R3        -1
    C20(22)   R4        -1
    C20(22)   R5        15
    C20(22)   R6        8
    C20(22)   R7        18
    C20(22)   R8        9
    C20(22)   R9        18
    C20(22)   R10       -1
    C20(22)   R11       5
    C20(22)   R12       16
    C20(22)   R15       13
    C20(22)   R16       16
    C20(22)   R17       7
    C20(22)   R18       5
    C20(22)   R20       12
    C20(22)   R21       14
    C20(22)   R22       18
    C20(22)   R24       12
    C20(22)   R25       7
    C21(26)   OBJ       -9
    C21(26)   R0        -3
    C21(26)   R1        1
    C21(26)   R2        18
    C21(26)   R3        3
    C21(26)   R4        7
    C21(26)   R5        14
    C21(26)   R6        6
    C21(26)   R7        13
    C21(26)   R8        11
    C21(26)   R9        -1
    C21(26)   R10       10
    C21(26)   R11       11
    C21(26)   R12       15
    C21(26)   R13       2
    C21(26)   R14       12
    C21(26)   R15       5
    C21(26)   R16       18
    C21(26)   R17       16
    C21(26)   R18       1
    C21(26)   R19       18
    C21(26)   R20       16
    C21(26)   R21       6
    C21(26)   R22       3
    C21(26)   R23       3
    C21(26)   R24       6
    C21(26)   R25       16
    C22(21)   OBJ       9
    C22(21)   R0        -9
    C22(21)   R1        9
    C22(21)   R2        16
    C22(21)   R3        18
    C22(21)   R4        4
    C22(21)   R5        12
    C22(21)   R6        11
    C22(21)   R7        10
    C22(21)   R8        5
    C22(21)   R10       6
    C22(21)   R11       14
    C22(21)   R12       13
    C22(21)   R13       12
    C22(21)   R15       13
    C22(21)   R16       11
    C22(21)   R17       -1
    C22(21)   R18       6
    C22(21)   R20       10
    C22(21)   R22       16
    C22(21)   R23       15
    C22(21)   R24       5
    C23(21)   OBJ       8
    C23(21)   R0        3
    C23(21)   R1        -2
    C23(21)   R2        12
    C23(21)   R3        11
    C23(21)   R4        14
    C23(21)   R5        5
    C23(21)   R6        18
    C23(21)   R7        10
    C23(21)   R8        5
    C23(21)   R9        13
    C23(21)   R11       5
    C23(21)   R12       5
    C23(21)   R13       9
    C23(21)   R14       11
    C23(21)   R16       16
    C23(21)   R17       2
    C23(21)   R19       -1
    C23(21)   R20       19
    C23(21)   R21       -1
    C23(21)   R22       17
    C23(21)   R23       6
    C24(18)   OBJ       -2
    C24(18)   R0        5
    C24(18)   R1        -10
    C24(18)   R2        1
    C24(18)   R4        2
    C24(18)   R6        9
    C24(18)   R7        14
    C24(18)   R9        2
    C24(18)   R11       2
    C24(18)   R12       2
    C24(18)   R15       15
    C24(18)   R16       6
    C24(18)   R17       13
    C24(18)   R19       8
    C24(18)   R20       19
    C24(18)   R21       14
    C24(18)   R22       4
    C24(18)   R24       -1
    C24(18)   R25       16
    C25(1)    R2        1
    C26(1)    R3        1
    C27(1)    R4        1
    C28(1)    R5        1
    C29(1)    R6        1
    C30(1)    R7        1
    C31(1)    R8        1
    C32(1)    R9        1
    C33(1)    R10       1
    C34(1)    R11       1
    C35(1)    R12       1
    C36(1)    R13       1
    C37(1)    R14       1
    C38(1)    R15       1
    C39(1)    R16       1
    C40(1)    R17       1
    C41(1)    R18       1
    C42(1)    R19       1
    C43(1)    R20       1
    C44(1)    R21       1
    C45(1)    R22       1
    C46(1)    R23       1
    C47(1)    R24       1
    C48(1)    R25       1
    C49(1)    R26       1
RHS
    RHS1      R0        6.7579110651499477e+01
    RHS1      R1        -7.6871768355739391e+01
    RHS1      R2        75
    RHS1      R3        54
    RHS1      R4        77
    RHS1      R5        74
    RHS1      R6        82
    RHS1      R7        76
    RHS1      R8        91
    RHS1      R9        55
    RHS1      R10       64
    RHS1      R11       61
    RHS1      R12       85
    RHS1      R13       87
    RHS1      R14       57
    RHS1      R15       58
    RHS1      R16       86
    RHS1      R17       67
    RHS1      R18       52
    RHS1      R19       94
    RHS1      R20       55
    RHS1      R21       66
    RHS1      R22       64
    RHS1      R23       71
    RHS1      R24       67
    RHS1      R25       57
    RHS1      R26       4
BOUNDS
 UP BND1      I0(12)    1
 UP BND1      I1(11)    1
 UP BND1      I2(11)    1
 UP BND1      I3(13)    1
 UP BND1      I4(14)    1
 UP BND1      I5(15)    1
 UP BND1      I6(13)    1
 UP BND1      I7(14)    1
 UP BND1      I8(12)    1
 UP BND1      I9(11)    1
 UP BND1      I10(13)   1
 UP BND1      I11(11)   1
ENDATA
